outputs/case_351.model.txt
case_improved_within_deadline = True
case_is_minor = False
violate_43_2_1_or_43_3_1_or_43_5_1_or_165_1_or_165_2_applied_43_2_1_or_43_3_1_or_43_5_1_or_43_1_4_or_5_or_165_1_or_165_2_applied_43_1_4 = False
violate_28_2_2_or_4_to_7_or_165_1_applied_28_2_2_or_4_to_7_or_28_2_3_or_165_1_applied_28_2_3 = False
violate_14_4_1_or_2_or_165_1_applied_14_4_1_or_2_or_14_4_5_or_165_1_applied_14_4_5 = False
violate_14_3_or_14_1_1_or_14_1_3_or_14_2_1_or_14_2_3_or_14_2_6_or_14_3_or_14_5_1_to_3_or_21_1_5_or_25_1_or_25_2_or_25_4_or_31_1_or_36_5_or_36_7_or_41_or_43_1_1_or_43_4_1_or_43_6_5_to_7_or_165_1_or_165_2_applied_14_3_31_1_36_5_43_4_1 = False
violate_26_3_1_or_7_or_8_or_165_1_applied_26_3_1_or_7_or_8_or_26_3_8_later_or_165_1_applied_26_3_8_later = False
violate_26_2_rules_on_directors_and_supervisors_shareholding_and_audit = False
violate_36_1_or_165_1_applied_36_1_rules_on_major_financial_business = False
violate_25_1_or_165_1_applied_25_1_rules_on_qualification_and_documents = False
fail_to_submit_or_obstruct_inspection_documents = False
violate_22_2_1_or_2_or_26_1_or_165_1_applied_22_2_1_or_2 = True
violate_14_6_1_or_165_1_applied_14_6_1_or_fail_to_establish_compensation_committee_or_qualifications_etc = False
fail_to_prepare_report_or_announce_or_store_documents = False
asset_scope_defined = False
evaluation_procedure_defined = False
operation_procedure_defined = False
announcement_and_declaration_procedure_defined = False
non_operating_real_estate_and_securities_limits_defined = True
subsidiary_asset_control_procedure_defined = True
penalty_for_violation_defined = True
other_important_matters_defined = True
subsidiary_asset_procedure_supervised = True
transaction_principles_and_policies_defined = False
risk_management_measures_defined = False
internal_audit_system_established = False
regular_evaluation_and_exception_handling_defined = False
derivative_trading_and_settlement_personnel_separated = False
risk_management_scope_includes_credit_market_liquidity_cashflow_operational_legal = False
risk_measurement_supervision_control_separated_and_reported = False
positions_evaluated_weekly_or_hedging_bi_monthly_and_reported = False
other_important_risk_management_measures_implemented = False
disclosure_of_financial_forecast_information_compliance = True
is_foreign_company = False
asset_transaction_procedure_compliance = False
is_legal_entity_or_foreign_company = True
derivative_transaction_risk_management_measures_compliance = False
responsible_person_penalty = True
penalty_exemption_for_minor_cases = True
penalty = False
violation_178_conditions = True
foreign_company_violation_178_3_or_4 = False
major_financial_business_compliance = False
derivative_transaction_risk_management_compliance = False